
n_res = 6;
rcap = [28, 28, 455, 452, 472, 461];
rtype = [1, 1, 2, 2, 2, 2];
n_tasks = 50;
modes =  [{1, 2, 3, 4, 5, 6}, {7, 8, 9, 10, 11, 12}, {13, 14, 15, 16, 17, 18}, {19, 20, 21, 22, 23, 24}, {25, 26, 27, 28, 29, 30}, {31, 32, 33, 34, 35, 36}, {37, 38, 39, 40, 41, 42}, {43, 44, 45, 46, 47, 48}, {49, 50, 51, 52, 53, 54}, {55, 56, 57, 58, 59, 60}, {61, 62, 63, 64, 65, 66}, {67, 68, 69, 70, 71, 72}, {73, 74, 75, 76, 77, 78}, {79, 80, 81, 82, 83, 84}, {85, 86, 87, 88, 89, 90}, {91, 92, 93, 94, 95, 96}, {97, 98, 99, 100, 101, 102}, {103, 104, 105, 106, 107, 108}, {109, 110, 111, 112, 113, 114}, {115, 116, 117, 118, 119, 120}, {121, 122, 123, 124, 125, 126}, {127, 128, 129, 130, 131, 132}, {133, 134, 135, 136, 137, 138}, {139, 140, 141, 142, 143, 144}, {145, 146, 147, 148, 149, 150}, {151, 152, 153, 154, 155, 156}, {157, 158, 159, 160, 161, 162}, {163, 164, 165, 166, 167, 168}, {169, 170, 171, 172, 173, 174}, {175, 176, 177, 178, 179, 180}, {181, 182, 183, 184, 185, 186}, {187, 188, 189, 190, 191, 192}, {193, 194, 195, 196, 197, 198}, {199, 200, 201, 202, 203, 204}, {205, 206, 207, 208, 209, 210}, {211, 212, 213, 214, 215, 216}, {217, 218, 219, 220, 221, 222}, {223, 224, 225, 226, 227, 228}, {229, 230, 231, 232, 233, 234}, {235, 236, 237, 238, 239, 240}, {241, 242, 243, 244, 245, 246}, {247, 248, 249, 250, 251, 252}, {253, 254, 255, 256, 257, 258}, {259, 260, 261, 262, 263, 264}, {265, 266, 267, 268, 269, 270}, {271, 272, 273, 274, 275, 276}, {277, 278, 279, 280, 281, 282}, {283, 284, 285, 286, 287, 288}, {289, 290, 291, 292, 293, 294}, {295, 296, 297, 298, 299, 300}];
succ =  [{50, 49, 48, 32, 29, 28, 26, 25, 24, 23, 22, 21, 12}, {48, 34, 31, 29, 25, 5}, {50, 43, 33, 22, 21, 18, 10}, {49, 48, 46, 43, 30, 28, 27, 22, 21, 18}, {49, 47, 46, 38, 32, 28, 27, 23, 22, 21}, {47, 46, 38, 28, 23, 22, 15}, {47, 46, 44, 41, 40, 38, 32, 31, 30, 27, 22}, {46, 45, 42, 40, 38, 30, 29, 15}, {48, 45, 43, 40, 39, 38, 37, 36, 34, 33, 31, 30}, {48, 47, 46, 44, 39, 38, 37, 31, 28, 27}, {48, 47, 44, 37, 35, 28, 27, 22}, {47, 46, 45, 42, 41, 40, 38, 37, 30, 27}, {44, 42, 40, 39, 33, 31, 26}, {46, 42, 39, 35, 32, 24}, {39, 24, 21}, {48, 45, 43, 39, 38, 37, 35}, {46, 43, 42, 38, 36, 29}, {42, 41, 38, 36, 29}, {43, 41, 38, 36, 35}, {41, 40, 39, 37, 36}, {44, 41, 37, 35}, {45, 42, 39}, {44, 41, 35}, {43, 36}, {43, 35}, {38, 36}, {36}, {40}, {35}, {35}, {35}, {37}, {47}, {35}, {}, {}, {}, {}, {}, {}, {}, {}, {}, {}, {}, {}, {}, {}, {}, {}];
n_opt = 300;
dur = [2, 3, 6, 9, 11, 12, 3, 11, 12, 15, 17, 20, 3, 5, 6, 7, 15, 16, 10, 12, 14, 15, 16, 18, 2, 4, 7, 7, 8, 11, 2, 3, 7, 9, 11, 17, 8, 9, 12, 13, 19, 20, 3, 4, 8, 11, 13, 20, 1, 3, 4, 6, 18, 19, 6, 7, 8, 12, 18, 20, 1, 4, 9, 10, 15, 19, 2, 3, 10, 18, 19, 20, 1, 4, 6, 7, 12, 14, 1, 4, 6, 7, 9, 20, 4, 10, 12, 15, 17, 18, 5, 7, 9, 12, 16, 18, 4, 8, 9, 12, 13, 14, 1, 2, 6, 9, 10, 14, 2, 3, 5, 10, 18, 19, 2, 3, 8, 10, 15, 18, 3, 5, 6, 9, 10, 18, 4, 5, 9, 10, 17, 18, 1, 7, 8, 9, 10, 14, 2, 3, 6, 17, 18, 19, 4, 5, 9, 10, 13, 17, 2, 7, 9, 12, 13, 20, 1, 4, 5, 7, 12, 18, 4, 5, 6, 7, 10, 15, 2, 13, 14, 15, 16, 19, 1, 10, 11, 16, 18, 19, 3, 10, 14, 15, 16, 18, 1, 4, 11, 12, 13, 15, 1, 2, 10, 16, 17, 18, 3, 6, 8, 9, 12, 13, 1, 2, 9, 11, 15, 16, 3, 13, 15, 16, 19, 20, 2, 4, 6, 8, 12, 15, 5, 6, 7, 8, 14, 19, 2, 5, 6, 11, 13, 14, 2, 4, 7, 13, 18, 19, 2, 3, 9, 10, 12, 13, 1, 3, 5, 9, 11, 13, 7, 11, 12, 16, 17, 19, 1, 2, 3, 4, 6, 15, 1, 10, 11, 12, 14, 19, 2, 5, 7, 10, 12, 18, 1, 2, 5, 10, 13, 17, 1, 2, 3, 10, 13, 18, 1, 2, 3, 9, 14, 15, 1, 4, 6, 9, 15, 17];
rreq = [|1, 1, 1, 1, 1, 1, 3, 2, 2, 1, 1, 1, 5, 4, 4, 3, 2, 2, 1, 1, 1, 1, 1, 1, 2, 2, 2, 2, 1, 1, 4, 3, 3, 2, 2, 2, 3, 3, 3, 3, 3, 3, 3, 3, 2, 2, 1, 1, 4, 3, 3, 2, 2, 2, 2, 2, 2, 2, 2, 2, 3, 3, 3, 3, 3, 3, 4, 4, 4, 4, 4, 4, 4, 4, 4, 4, 4, 4, 5, 4, 3, 3, 1, 1, 2, 2, 2, 1, 1, 1, 2, 2, 2, 2, 2, 2, 4, 3, 3, 3, 2, 2, 4, 4, 4, 4, 4, 4, 5, 5, 5, 5, 5, 5, 4, 4, 4, 4, 4, 4, 1, 1, 1, 1, 1, 1, 5, 4, 4, 3, 3, 3, 4, 3, 3, 3, 3, 3, 2, 2, 2, 2, 2, 2, 2, 2, 2, 2, 2, 2, 2, 2, 2, 2, 2, 2, 4, 4, 4, 4, 4, 4, 3, 2, 2, 2, 2, 2, 3, 2, 2, 1, 1, 1, 4, 3, 3, 3, 3, 3, 5, 4, 4, 4, 4, 4, 3, 2, 2, 1, 1, 1, 1, 1, 1, 1, 1, 1, 3, 3, 3, 3, 2, 2, 3, 3, 3, 3, 3, 3, 4, 4, 4, 4, 3, 3, 3, 3, 3, 2, 2, 1, 4, 4, 4, 4, 4, 4, 4, 3, 3, 3, 2, 2, 3, 2, 2, 2, 2, 2, 5, 4, 3, 3, 2, 2, 3, 3, 3, 3, 3, 3, 5, 5, 5, 5, 5, 5, 4, 4, 4, 4, 3, 3, 3, 3, 3, 3, 3, 3, 4, 3, 3, 2, 2, 2, 3, 2, 2, 2, 1, 1, 3, 3, 2, 2, 2, 1, 5, 5, 5, 5, 5, 5, 2, 2, 2, 1, 1, 1
 |3, 3, 3, 3, 3, 3, 2, 2, 2, 2, 2, 2, 5, 4, 4, 4, 4, 4, 4, 4, 4, 4, 4, 4, 5, 4, 4, 4, 3, 3, 3, 3, 3, 2, 1, 1, 5, 3, 3, 3, 2, 1, 2, 2, 2, 2, 2, 2, 4, 4, 4, 4, 4, 4, 4, 3, 3, 3, 2, 2, 4, 4, 4, 4, 4, 4, 5, 4, 4, 3, 3, 3, 3, 3, 3, 3, 2, 2, 3, 3, 3, 3, 3, 3, 4, 3, 3, 3, 3, 3, 2, 2, 2, 1, 1, 1, 4, 3, 3, 2, 2, 2, 3, 2, 2, 2, 1, 1, 2, 1, 1, 1, 1, 1, 5, 5, 5, 5, 5, 5, 3, 2, 2, 2, 2, 2, 4, 3, 3, 2, 2, 2, 2, 2, 2, 2, 1, 1, 2, 1, 1, 1, 1, 1, 5, 3, 3, 3, 1, 1, 5, 5, 5, 5, 5, 5, 4, 3, 3, 2, 2, 1, 5, 4, 4, 3, 3, 3, 5, 5, 5, 5, 5, 5, 2, 2, 2, 1, 1, 1, 4, 4, 3, 3, 2, 2, 4, 3, 3, 3, 2, 1, 5, 4, 4, 3, 3, 3, 2, 2, 2, 2, 1, 1, 5, 4, 4, 4, 4, 4, 4, 4, 4, 4, 4, 4, 5, 4, 3, 3, 2, 1, 4, 4, 4, 3, 3, 2, 4, 3, 3, 3, 3, 3, 3, 2, 2, 2, 1, 1, 2, 1, 1, 1, 1, 1, 3, 3, 3, 3, 3, 3, 2, 1, 1, 1, 1, 1, 3, 3, 3, 3, 3, 3, 4, 3, 3, 3, 3, 3, 5, 5, 5, 5, 5, 5, 1, 1, 1, 1, 1, 1, 4, 3, 3, 3, 3, 3, 2, 2, 2, 2, 2, 2, 2, 2, 2, 2, 1, 1
 |14, 12, 12, 10, 10, 9, 9, 9, 7, 7, 4, 4, 12, 10, 9, 9, 8, 7, 13, 13, 12, 10, 9, 9, 10, 7, 7, 5, 3, 2, 18, 17, 17, 16, 16, 16, 13, 12, 10, 7, 3, 2, 12, 10, 9, 8, 4, 3, 12, 11, 11, 11, 10, 10, 14, 13, 13, 12, 11, 11, 11, 8, 7, 4, 4, 1, 17, 16, 16, 15, 15, 15, 16, 16, 14, 11, 8, 5, 17, 17, 16, 15, 14, 14, 13, 11, 8, 8, 6, 4, 17, 16, 15, 14, 11, 10, 16, 16, 15, 14, 13, 12, 15, 14, 11, 8, 7, 5, 9, 8, 8, 7, 6, 6, 14, 12, 11, 10, 9, 9, 11, 9, 7, 6, 6, 5, 8, 8, 8, 7, 7, 7, 4, 4, 4, 3, 3, 2, 19, 19, 19, 19, 19, 19, 12, 10, 8, 6, 6, 4, 6, 5, 5, 5, 4, 4, 18, 13, 10, 10, 5, 4, 7, 6, 6, 4, 4, 3, 20, 17, 16, 16, 15, 13, 7, 6, 5, 4, 3, 3, 13, 13, 9, 8, 4, 1, 20, 19, 19, 18, 17, 17, 9, 8, 6, 5, 3, 3, 9, 7, 7, 6, 6, 5, 14, 14, 12, 11, 10, 9, 17, 15, 15, 14, 12, 10, 18, 15, 15, 13, 12, 11, 13, 12, 12, 12, 12, 12, 17, 16, 16, 15, 14, 14, 17, 15, 15, 15, 13, 13, 11, 10, 9, 9, 8, 7, 14, 12, 11, 10, 8, 7, 13, 12, 12, 12, 12, 12, 3, 2, 2, 2, 1, 1, 11, 9, 8, 8, 7, 5, 15, 13, 12, 11, 10, 10, 13, 12, 12, 12, 12, 12, 17, 12, 12, 9, 6, 3, 12, 12, 11, 9, 9, 8, 12, 12, 12, 12, 12, 12
 |9, 7, 6, 5, 2, 2, 14, 12, 12, 12, 11, 10, 17, 14, 13, 12, 12, 11, 20, 17, 14, 13, 11, 9, 16, 16, 16, 16, 16, 16, 19, 18, 18, 17, 16, 15, 14, 14, 13, 13, 11, 11, 10, 8, 6, 5, 4, 3, 13, 12, 12, 11, 11, 11, 6, 6, 5, 5, 5, 4, 7, 5, 4, 3, 2, 2, 12, 11, 9, 8, 6, 5, 8, 7, 5, 3, 3, 1, 13, 13, 12, 11, 10, 10, 19, 19, 19, 19, 18, 18, 16, 15, 13, 9, 7, 4, 17, 16, 13, 10, 10, 8, 9, 9, 8, 7, 6, 5, 17, 17, 17, 16, 15, 15, 4, 4, 4, 4, 4, 4, 7, 6, 6, 6, 6, 6, 18, 15, 15, 11, 9, 8, 13, 13, 13, 13, 13, 13, 6, 5, 5, 5, 5, 5, 19, 19, 19, 18, 18, 18, 14, 11, 9, 8, 6, 5, 14, 11, 8, 7, 6, 4, 17, 12, 10, 7, 3, 2, 14, 11, 9, 6, 5, 3, 10, 8, 7, 7, 6, 4, 19, 18, 17, 17, 16, 16, 18, 18, 16, 15, 14, 13, 5, 5, 4, 4, 4, 3, 7, 5, 5, 4, 3, 3, 16, 15, 12, 12, 10, 8, 15, 14, 11, 7, 4, 1, 15, 14, 13, 13, 12, 12, 16, 16, 16, 16, 15, 15, 19, 19, 19, 19, 19, 19, 11, 10, 10, 9, 9, 8, 11, 9, 8, 5, 3, 2, 13, 13, 13, 13, 13, 13, 18, 17, 14, 9, 6, 4, 11, 10, 9, 6, 5, 3, 13, 11, 10, 8, 6, 5, 13, 12, 11, 10, 9, 9, 12, 11, 10, 8, 7, 5, 8, 7, 6, 4, 3, 2, 14, 9, 9, 5, 5, 3, 11, 11, 10, 9, 8, 8
 |14, 13, 10, 6, 6, 1, 5, 4, 4, 3, 3, 3, 19, 19, 19, 19, 19, 19, 7, 7, 5, 5, 4, 3, 18, 15, 15, 13, 12, 11, 5, 4, 4, 4, 4, 4, 18, 18, 17, 17, 17, 16, 20, 19, 19, 19, 19, 19, 9, 9, 8, 6, 6, 4, 12, 12, 9, 7, 5, 3, 11, 8, 7, 5, 3, 1, 17, 13, 10, 7, 7, 4, 18, 15, 10, 10, 5, 5, 16, 15, 14, 14, 13, 13, 12, 11, 10, 8, 8, 6, 14, 14, 14, 13, 13, 13, 12, 12, 12, 12, 12, 12, 17, 17, 17, 17, 17, 17, 9, 9, 8, 8, 7, 7, 17, 13, 10, 10, 6, 4, 8, 7, 6, 4, 4, 2, 17, 16, 15, 13, 13, 12, 19, 15, 12, 10, 6, 3, 18, 15, 15, 12, 10, 7, 19, 16, 16, 14, 11, 10, 8, 8, 6, 6, 5, 4, 12, 12, 11, 10, 10, 9, 6, 5, 5, 4, 4, 3, 16, 16, 15, 12, 12, 10, 15, 13, 11, 10, 10, 8, 15, 14, 12, 8, 8, 4, 19, 17, 15, 11, 11, 7, 14, 14, 11, 6, 4, 2, 15, 13, 11, 11, 9, 6, 9, 8, 8, 8, 8, 8, 13, 12, 12, 12, 10, 10, 18, 15, 15, 13, 13, 12, 18, 17, 16, 14, 13, 12, 9, 8, 7, 4, 3, 2, 15, 15, 15, 15, 15, 15, 16, 16, 16, 16, 15, 15, 18, 17, 16, 13, 11, 10, 14, 14, 14, 14, 14, 14, 11, 10, 10, 10, 9, 9, 19, 18, 18, 17, 16, 15, 11, 11, 8, 8, 7, 5, 15, 15, 15, 15, 15, 15, 3, 3, 3, 3, 2, 2, 11, 10, 8, 7, 7, 6, 7, 5, 4, 3, 3, 2
 |8, 8, 5, 5, 2, 1, 14, 10, 9, 6, 4, 4, 8, 8, 8, 8, 8, 8, 17, 16, 16, 16, 15, 14, 19, 19, 18, 19, 19, 19, 17, 15, 14, 15, 14, 13, 15, 14, 14, 13, 13, 12, 7, 6, 6, 5, 5, 4, 12, 11, 9, 8, 6, 6, 18, 18, 17, 16, 14, 13, 18, 15, 15, 14, 12, 12, 17, 16, 16, 16, 15, 15, 19, 16, 15, 15, 13, 12, 9, 9, 8, 8, 6, 5, 17, 16, 15, 14, 14, 13, 16, 15, 15, 15, 14, 14, 17, 15, 13, 12, 12, 10, 14, 13, 11, 9, 8, 6, 11, 9, 8, 8, 6, 5, 16, 11, 10, 9, 4, 4, 19, 18, 18, 18, 17, 18, 12, 11, 11, 11, 11, 11, 7, 7, 7, 7, 7, 7, 1, 2, 1, 1, 1, 1, 19, 15, 13, 10, 8, 4, 11, 9, 8, 6, 5, 4, 8, 8, 7, 6, 4, 3, 2, 2, 2, 2, 1, 1, 19, 19, 19, 19, 19, 19, 15, 12, 9, 8, 6, 4, 16, 16, 14, 13, 13, 12, 16, 13, 13, 12, 8, 7, 10, 9, 7, 5, 4, 2, 20, 16, 16, 14, 12, 9, 8, 8, 8, 8, 8, 8, 17, 16, 16, 14, 12, 11, 5, 5, 5, 4, 4, 3, 17, 17, 16, 16, 16, 15, 11, 10, 10, 10, 10, 10, 18, 16, 12, 9, 7, 5, 9, 7, 5, 4, 2, 2, 9, 8, 7, 5, 4, 2, 2, 2, 2, 1, 1, 1, 14, 13, 11, 9, 6, 6, 15, 13, 13, 10, 9, 7, 16, 16, 11, 9, 5, 1, 16, 16, 15, 15, 15, 14, 19, 17, 16, 14, 13, 11, 9, 9, 8, 6, 4, 2, 16, 16, 13, 7, 5, 3|];